(declare-fun bvlambda_52_ () (_ BitVec 1))
(declare-fun a165 () (Array (_ BitVec 1) (_ BitVec 3)))
(assert
(let (($e1 (_ bv0 1)))
(let (($e51 (_ bv6 3)))
(let (($e307 (store a165 (not   $e1) $e51 )))
(let (($e331 (concat false        bvlambda_52_)))
(let (($e332 (concat $e331 $e1         )))
(let (($e333 (store $e307 bvlambda_52_ $e332)))
(let (($e522 (select $e333 (bvnot $e1))))
                  (bvult $e522 $e51 )
                                                                                                                                                                                                                                                                                                                                                                                                                                                                                                                                                                                                                                                                                                                                                                                                                                                                                                                                                                                                                                                                                                                                                                                                                                                                                                                                                                                                                                                                                                                                                                                                                                                                                                                                                                                                                                                                                                                                                                                                                                                                                                                                                                                                                                                                                                                                                                                                                             )                                                                                                                                                                                            )))                       )                                                                                                                                                                                                     )                                                 ))
